p cnf 250 400
33 37 43 51 52 0
33 37 43 51 -52 0
33 37 43 -51 52 0
33 37 43 -51 -52 0
21 -37 43 53 54 0
21 -37 43 53 -54 0
21 -37 43 -53 54 0
21 -37 43 -53 -54 0
-21 -37 39 55 56 0
-21 -37 39 55 -56 0
-21 -37 39 -55 56 0
-21 -37 39 -55 -56 0
23 39 -43 57 58 0
23 39 -43 57 -58 0
23 39 -43 -57 58 0
23 39 -43 -57 -58 0
13 -23 31 59 60 0
13 -23 31 59 -60 0
13 -23 31 -59 60 0
13 -23 31 -59 -60 0
-13 -23 31 61 62 0
-13 -23 31 61 -62 0
-13 -23 31 -61 62 0
-13 -23 31 -61 -62 0
-23 -31 -43 63 64 0
-23 -31 -43 63 -64 0
-23 -31 -43 -63 64 0
-23 -31 -43 -63 -64 0
6 9 25 65 66 0
6 9 25 65 -66 0
6 9 25 -65 66 0
6 9 25 -65 -66 0
-6 9 25 67 68 0
-6 9 25 67 -68 0
-6 9 25 -67 68 0
-6 9 25 -67 -68 0
9 33 -38 69 70 0
9 33 -38 69 -70 0
9 33 -38 -69 70 0
9 33 -38 -69 -70 0
-9 25 -39 71 72 0
-9 25 -39 71 -72 0
-9 25 -39 -71 72 0
-9 25 -39 -71 -72 0
24 -25 -39 73 74 0
24 -25 -39 73 -74 0
24 -25 -39 -73 74 0
24 -25 -39 -73 -74 0
-24 -25 33 75 76 0
-24 -25 33 75 -76 0
-24 -25 33 -75 76 0
-24 -25 33 -75 -76 0
6 27 41 77 78 0
6 27 41 77 -78 0
6 27 41 -77 78 0
6 27 41 -77 -78 0
-6 14 41 79 80 0
-6 14 41 79 -80 0
-6 14 41 -79 80 0
-6 14 41 -79 -80 0
14 -41 43 81 82 0
14 -41 43 81 -82 0
14 -41 43 -81 82 0
14 -41 43 -81 -82 0
14 -41 -43 83 84 0
14 -41 -43 83 -84 0
14 -41 -43 -83 84 0
14 -41 -43 -83 -84 0
1 20 27 85 86 0
1 20 27 85 -86 0
1 20 27 -85 86 0
1 20 27 -85 -86 0
1 12 -20 87 88 0
1 12 -20 87 -88 0
1 12 -20 -87 88 0
1 12 -20 -87 -88 0
1 -12 -14 89 90 0
1 -12 -14 89 -90 0
1 -12 -14 -89 90 0
1 -12 -14 -89 -90 0
-1 27 28 91 92 0
-1 27 28 91 -92 0
-1 27 28 -91 92 0
-1 27 28 -91 -92 0
-1 -14 -28 93 94 0
-1 -14 -28 93 -94 0
-1 -14 -28 -93 94 0
-1 -14 -28 -93 -94 0
-1 -11 -14 95 96 0
-1 -11 -14 95 -96 0
-1 -11 -14 -95 96 0
-1 -11 -14 -95 -96 0
-27 -33 39 97 98 0
-27 -33 39 97 -98 0
-27 -33 39 -97 98 0
-27 -33 39 -97 -98 0
5 20 28 99 100 0
5 20 28 99 -100 0
5 20 28 -99 100 0
5 20 28 -99 -100 0
19 29 -33 101 102 0
19 29 -33 101 -102 0
19 29 -33 -101 102 0
19 29 -33 -101 -102 0
-19 -20 29 103 104 0
-19 -20 29 103 -104 0
-19 -20 29 -103 104 0
-19 -20 29 -103 -104 0
-20 28 -29 105 106 0
-20 28 -29 105 -106 0
-20 28 -29 -105 106 0
-20 28 -29 -105 -106 0
5 -28 37 107 108 0
5 -28 37 107 -108 0
5 -28 37 -107 108 0
5 -28 37 -107 -108 0
5 -28 -37 109 110 0
5 -28 -37 109 -110 0
5 -28 -37 -109 110 0
5 -28 -37 -109 -110 0
-5 -33 -39 111 112 0
-5 -33 -39 111 -112 0
-5 -33 -39 -111 112 0
-5 -33 -39 -111 -112 0
7 17 22 113 114 0
7 17 22 113 -114 0
7 17 22 -113 114 0
7 17 22 -113 -114 0
-5 7 17 115 116 0
-5 7 17 115 -116 0
-5 7 17 -115 116 0
-5 7 17 -115 -116 0
-7 18 22 117 118 0
-7 18 22 117 -118 0
-7 18 22 -117 118 0
-7 18 22 -117 -118 0
22 -24 41 119 120 0
22 -24 41 119 -120 0
22 -24 41 -119 120 0
22 -24 41 -119 -120 0
-7 12 18 121 122 0
-7 12 18 121 -122 0
-7 12 18 -121 122 0
-7 12 18 -121 -122 0
-12 18 34 123 124 0
-12 18 34 123 -124 0
-12 18 34 -123 124 0
-12 18 34 -123 -124 0
-12 34 -42 125 126 0
-12 34 -42 125 -126 0
-12 34 -42 -125 126 0
-12 34 -42 -125 -126 0
-7 -34 -41 127 128 0
-7 -34 -41 127 -128 0
-7 -34 -41 -127 128 0
-7 -34 -41 -127 -128 0
-16 -29 35 129 130 0
-16 -29 35 129 -130 0
-16 -29 35 -129 130 0
-16 -29 35 -129 -130 0
-3 13 -29 131 132 0
-3 13 -29 131 -132 0
-3 13 -29 -131 132 0
-3 13 -29 -131 -132 0
-21 -30 37 133 134 0
-21 -30 37 133 -134 0
-21 -30 37 -133 134 0
-21 -30 37 -133 -134 0
-15 -21 47 135 136 0
-15 -21 47 135 -136 0
-15 -21 47 -135 136 0
-15 -21 47 -135 -136 0
-8 24 40 137 138 0
-8 24 40 137 -138 0
-8 24 40 -137 138 0
-8 24 40 -137 -138 0
-3 -8 42 139 140 0
-3 -8 42 139 -140 0
-3 -8 42 -139 140 0
-3 -8 42 -139 -140 0
-3 -8 -42 141 142 0
-3 -8 -42 141 -142 0
-3 -8 -42 -141 142 0
-3 -8 -42 -141 -142 0
-2 30 36 143 144 0
-2 30 36 143 -144 0
-2 30 36 -143 144 0
-2 30 36 -143 -144 0
-2 -30 36 145 146 0
-2 -30 36 145 -146 0
-2 -30 36 -145 146 0
-2 -30 36 -145 -146 0
-4 -35 44 147 148 0
-4 -35 44 147 -148 0
-4 -35 44 -147 148 0
-4 -35 44 -147 -148 0
42 -45 -50 149 150 0
42 -45 -50 149 -150 0
42 -45 -50 -149 150 0
42 -45 -50 -149 -150 0
-42 -45 -50 151 152 0
-42 -45 -50 151 -152 0
-42 -45 -50 -151 152 0
-42 -45 -50 -151 -152 0
-11 15 -40 153 154 0
-11 15 -40 153 -154 0
-11 15 -40 -153 154 0
-11 15 -40 -153 -154 0
3 46 48 155 156 0
3 46 48 155 -156 0
3 46 48 -155 156 0
3 46 48 -155 -156 0
3 -46 48 157 158 0
3 -46 48 157 -158 0
3 -46 48 -157 158 0
3 -46 48 -157 -158 0
-11 30 50 159 160 0
-11 30 50 159 -160 0
-11 30 50 -159 160 0
-11 30 50 -159 -160 0
-16 30 50 161 162 0
-16 30 50 161 -162 0
-16 30 50 -161 162 0
-16 30 50 -161 -162 0
4 -36 -40 163 164 0
4 -36 -40 163 -164 0
4 -36 -40 -163 164 0
4 -36 -40 -163 -164 0
8 46 47 165 166 0
8 46 47 165 -166 0
8 46 47 -165 166 0
8 46 47 -165 -166 0
24 -40 44 167 168 0
24 -40 44 167 -168 0
24 -40 44 -167 168 0
24 -40 44 -167 -168 0
12 16 -46 169 170 0
12 16 -46 169 -170 0
12 16 -46 -169 170 0
12 16 -46 -169 -170 0
2 6 -36 171 172 0
2 6 -36 171 -172 0
2 6 -36 -171 172 0
2 6 -36 -171 -172 0
-6 -44 46 173 174 0
-6 -44 46 173 -174 0
-6 -44 46 -173 174 0
-6 -44 46 -173 -174 0
-22 32 -36 175 176 0
-22 32 -36 175 -176 0
-22 32 -36 -175 176 0
-22 32 -36 -175 -176 0
3 32 38 177 178 0
3 32 38 177 -178 0
3 32 38 -177 178 0
3 32 38 -177 -178 0
-27 -35 38 179 180 0
-27 -35 38 179 -180 0
-27 -35 38 -179 180 0
-27 -35 38 -179 -180 0
11 16 -47 181 182 0
11 16 -47 181 -182 0
11 16 -47 -181 182 0
11 16 -47 -181 -182 0
31 -45 -46 183 184 0
31 -45 -46 183 -184 0
31 -45 -46 -183 184 0
31 -45 -46 -183 -184 0
19 -24 32 185 186 0
19 -24 32 185 -186 0
19 -24 32 -185 186 0
19 -24 32 -185 -186 0
-15 23 -31 187 188 0
-15 23 -31 187 -188 0
-15 23 -31 -187 188 0
-15 23 -31 -187 -188 0
4 -34 -49 189 190 0
4 -34 -49 189 -190 0
4 -34 -49 -189 190 0
4 -34 -49 -189 -190 0
11 -22 -49 191 192 0
11 -22 -49 191 -192 0
11 -22 -49 -191 192 0
11 -22 -49 -191 -192 0
23 -26 50 193 194 0
23 -26 50 193 -194 0
23 -26 50 -193 194 0
23 -26 50 -193 -194 0
-9 -31 -32 195 196 0
-9 -31 -32 195 -196 0
-9 -31 -32 -195 196 0
-9 -31 -32 -195 -196 0
-2 -27 35 197 198 0
-2 -27 35 197 -198 0
-2 -27 35 -197 198 0
-2 -27 35 -197 -198 0
26 34 45 199 200 0
26 34 45 199 -200 0
26 34 45 -199 200 0
26 34 45 -199 -200 0
7 36 47 201 202 0
7 36 47 201 -202 0
7 36 47 -201 202 0
7 36 47 -201 -202 0
-4 -30 49 203 204 0
-4 -30 49 203 -204 0
-4 -30 49 -203 204 0
-4 -30 49 -203 -204 0
-26 -44 -50 205 206 0
-26 -44 -50 205 -206 0
-26 -44 -50 -205 206 0
-26 -44 -50 -205 -206 0
2 40 48 207 208 0
2 40 48 207 -208 0
2 40 48 -207 208 0
2 40 48 -207 -208 0
26 -44 -47 209 210 0
26 -44 -47 209 -210 0
26 -44 -47 -209 210 0
26 -44 -47 -209 -210 0
-18 19 -25 211 212 0
-18 19 -25 211 -212 0
-18 19 -25 -211 212 0
-18 19 -25 -211 -212 0
-38 42 49 213 214 0
-38 42 49 213 -214 0
-38 42 49 -213 214 0
-38 42 49 -213 -214 0
13 -22 49 215 216 0
13 -22 49 215 -216 0
13 -22 49 -215 216 0
13 -22 49 -215 -216 0
-10 -32 -48 217 218 0
-10 -32 -48 217 -218 0
-10 -32 -48 -217 218 0
-10 -32 -48 -217 -218 0
2 -19 29 219 220 0
2 -19 29 219 -220 0
2 -19 29 -219 220 0
2 -19 29 -219 -220 0
-13 -15 26 221 222 0
-13 -15 26 221 -222 0
-13 -15 26 -221 222 0
-13 -15 26 -221 -222 0
-10 -17 20 223 224 0
-10 -17 20 223 -224 0
-10 -17 20 -223 224 0
-10 -17 20 -223 -224 0
-17 21 45 225 226 0
-17 21 45 225 -226 0
-17 21 45 -225 226 0
-17 21 45 -225 -226 0
-4 -13 -26 227 228 0
-4 -13 -26 227 -228 0
-4 -13 -26 -227 228 0
-4 -13 -26 -227 -228 0
-9 21 -48 229 230 0
-9 21 -48 229 -230 0
-9 21 -48 -229 230 0
-9 21 -48 -229 -230 0
-10 35 44 231 232 0
-10 35 44 231 -232 0
-10 35 44 -231 232 0
-10 35 44 -231 -232 0
-32 -48 -49 233 234 0
-32 -48 -49 233 -234 0
-32 -48 -49 -233 234 0
-32 -48 -49 -233 -234 0
4 -16 -19 235 236 0
4 -16 -19 235 -236 0
4 -16 -19 -235 236 0
4 -16 -19 -235 -236 0
-5 8 40 237 238 0
-5 8 40 237 -238 0
-5 8 40 -237 238 0
-5 8 40 -237 -238 0
15 -18 -35 239 240 0
15 -18 -35 239 -240 0
15 -18 -35 -239 240 0
15 -18 -35 -239 -240 0
8 10 -47 241 242 0
8 10 -47 241 -242 0
8 10 -47 -241 242 0
8 10 -47 -241 -242 0
10 15 45 243 244 0
10 15 45 243 -244 0
10 15 45 -243 244 0
10 15 45 -243 -244 0
10 -18 -34 245 246 0
10 -18 -34 245 -246 0
10 -18 -34 -245 246 0
10 -18 -34 -245 -246 0
16 17 38 247 248 0
16 17 38 247 -248 0
16 17 38 -247 248 0
16 17 38 -247 -248 0
11 -17 -38 249 250 0
11 -17 -38 249 -250 0
11 -17 -38 -249 250 0
11 -17 -38 -249 -250 0
